75
19
79
18
24
38
99
36
84
10
72
21
74
59
17
15
11
32
92
8
42
89
31
80
56
97
4
65
26
66
70
22
94
16
88
53
90
49
6
1
93
28
67
58
61
25
81
73
50
44
2
54
40
64
69
68
85
96
78
52
5
37
33
76
13
95
82
39
30
48
100
41
71
14
3
43
46
29
34
83
55
12
27
35
86
20
57
7
9
87
51
77
62
60
23
98
45
91
47
63
75
